NAME           C:\Bruker\Hvattum\knapsack\Problems\class4\100-10-06.mps
ROWS
 N  OBJ
 L  CONSTR1
 L  CONSTR2
 L  CONSTR3
 L  CONSTR4
 L  CONSTR5
 L  CONSTR6
 L  CONSTR7
 L  CONSTR8
 L  CONSTR9
 L  CONSTR10
COLUMNS
    INT0001   'MARKER'  'INTORG'
    X1        OBJ       734
    X1        CONSTR1   784
    X1        CONSTR2   716
    X1        CONSTR3   93
    X1        CONSTR4   187
    X1        CONSTR5   438
    X1        CONSTR6   955
    X1        CONSTR7   544
    X1        CONSTR8   208
    X1        CONSTR9   678
    X1        CONSTR10  418
    X2        OBJ       1021
    X2        CONSTR1   789
    X2        CONSTR2   816
    X2        CONSTR3   860
    X2        CONSTR4   979
    X2        CONSTR5   348
    X2        CONSTR6   68
    X2        CONSTR7   574
    X2        CONSTR8   288
    X2        CONSTR9   708
    X2        CONSTR10  336
    X3        OBJ       476
    X3        CONSTR1   218
    X3        CONSTR2   854
    X3        CONSTR3   551
    X3        CONSTR4   675
    X3        CONSTR5   799
    X3        CONSTR6   40
    X3        CONSTR7   998
    X3        CONSTR8   56
    X3        CONSTR9   190
    X3        CONSTR10  138
    X4        OBJ       707
    X4        CONSTR1   320
    X4        CONSTR2   631
    X4        CONSTR3   994
    X4        CONSTR4   467
    X4        CONSTR5   704
    X4        CONSTR6   705
    X4        CONSTR7   166
    X4        CONSTR8   746
    X4        CONSTR9   489
    X4        CONSTR10  361
    X5        OBJ       603
    X5        CONSTR1   117
    X5        CONSTR2   708
    X5        CONSTR3   299
    X5        CONSTR4   422
    X5        CONSTR5   65
    X5        CONSTR6   696
    X5        CONSTR7   572
    X5        CONSTR8   134
    X5        CONSTR9   972
    X5        CONSTR10  950
    X6        OBJ       919
    X6        CONSTR1   224
    X6        CONSTR2   23
    X6        CONSTR3   583
    X6        CONSTR4   827
    X6        CONSTR5   622
    X6        CONSTR6   810
    X6        CONSTR7   305
    X6        CONSTR8   431
    X6        CONSTR9   434
    X6        CONSTR10  359
    X7        OBJ       741
    X7        CONSTR1   410
    X7        CONSTR2   165
    X7        CONSTR3   591
    X7        CONSTR4   700
    X7        CONSTR5   567
    X7        CONSTR6   806
    X7        CONSTR7   966
    X7        CONSTR8   868
    X7        CONSTR9   114
    X7        CONSTR10  885
    X8        OBJ       757
    X8        CONSTR1   738
    X8        CONSTR2   293
    X8        CONSTR3   979
    X8        CONSTR4   310
    X8        CONSTR5   84
    X8        CONSTR6   580
    X8        CONSTR7   85
    X8        CONSTR8   19
    X8        CONSTR9   26
    X8        CONSTR10  239
    X9        OBJ       846
    X9        CONSTR1   248
    X9        CONSTR2   490
    X9        CONSTR3   809
    X9        CONSTR4   317
    X9        CONSTR5   754
    X9        CONSTR6   77
    X9        CONSTR7   85
    X9        CONSTR8   56
    X9        CONSTR9   866
    X9        CONSTR10  261
    X10       OBJ       833
    X10       CONSTR1   482
    X10       CONSTR2   457
    X10       CONSTR3   287
    X10       CONSTR4   876
    X10       CONSTR5   577
    X10       CONSTR6   949
    X10       CONSTR7   818
    X10       CONSTR8   837
    X10       CONSTR9   72
    X10       CONSTR10  273
    X11       OBJ       708
    X11       CONSTR1   159
    X11       CONSTR2   450
    X11       CONSTR3   411
    X11       CONSTR4   820
    X11       CONSTR5   942
    X11       CONSTR6   887
    X11       CONSTR7   929
    X11       CONSTR8   499
    X11       CONSTR9   825
    X11       CONSTR10  611
    X12       OBJ       1052
    X12       CONSTR1   545
    X12       CONSTR2   458
    X12       CONSTR3   410
    X12       CONSTR4   956
    X12       CONSTR5   661
    X12       CONSTR6   516
    X12       CONSTR7   896
    X12       CONSTR8   629
    X12       CONSTR9   621
    X12       CONSTR10  551
    X13       OBJ       853
    X13       CONSTR1   817
    X13       CONSTR2   814
    X13       CONSTR3   959
    X13       CONSTR4   724
    X13       CONSTR5   897
    X13       CONSTR6   675
    X13       CONSTR7   118
    X13       CONSTR8   500
    X13       CONSTR9   12
    X13       CONSTR10  759
    X14       OBJ       766
    X14       CONSTR1   745
    X14       CONSTR2   56
    X14       CONSTR3   102
    X14       CONSTR4   923
    X14       CONSTR5   267
    X14       CONSTR6   445
    X14       CONSTR7   408
    X14       CONSTR8   32
    X14       CONSTR9   994
    X14       CONSTR10  28
    X15       OBJ       993
    X15       CONSTR1   525
    X15       CONSTR2   284
    X15       CONSTR3   717
    X15       CONSTR4   846
    X15       CONSTR5   427
    X15       CONSTR6   403
    X15       CONSTR7   701
    X15       CONSTR8   314
    X15       CONSTR9   703
    X15       CONSTR10  650
    X16       OBJ       819
    X16       CONSTR1   937
    X16       CONSTR2   237
    X16       CONSTR3   202
    X16       CONSTR4   851
    X16       CONSTR5   182
    X16       CONSTR6   504
    X16       CONSTR7   545
    X16       CONSTR8   771
    X16       CONSTR9   962
    X16       CONSTR10  420
    X17       OBJ       506
    X17       CONSTR1   110
    X17       CONSTR2   7
    X17       CONSTR3   838
    X17       CONSTR4   512
    X17       CONSTR5   432
    X17       CONSTR6   606
    X17       CONSTR7   90
    X17       CONSTR8   891
    X17       CONSTR9   270
    X17       CONSTR10  800
    X18       OBJ       881
    X18       CONSTR1   246
    X18       CONSTR2   276
    X18       CONSTR3   447
    X18       CONSTR4   474
    X18       CONSTR5   674
    X18       CONSTR6   178
    X18       CONSTR7   935
    X18       CONSTR8   777
    X18       CONSTR9   406
    X18       CONSTR10  912
    X19       OBJ       593
    X19       CONSTR1   168
    X19       CONSTR2   292
    X19       CONSTR3   919
    X19       CONSTR4   610
    X19       CONSTR5   356
    X19       CONSTR6   240
    X19       CONSTR7   46
    X19       CONSTR8   234
    X19       CONSTR9   230
    X19       CONSTR10  839
    X20       OBJ       471
    X20       CONSTR1   150
    X20       CONSTR2   213
    X20       CONSTR3   646
    X20       CONSTR4   132
    X20       CONSTR5   353
    X20       CONSTR6   894
    X20       CONSTR7   490
    X20       CONSTR8   317
    X20       CONSTR9   828
    X20       CONSTR10  188
    X21       OBJ       720
    X21       CONSTR1   316
    X21       CONSTR2   18
    X21       CONSTR3   476
    X21       CONSTR4   411
    X21       CONSTR5   111
    X21       CONSTR6   333
    X21       CONSTR7   801
    X21       CONSTR8   664
    X21       CONSTR9   523
    X21       CONSTR10  588
    X22       OBJ       913
    X22       CONSTR1   774
    X22       CONSTR2   767
    X22       CONSTR3   724
    X22       CONSTR4   184
    X22       CONSTR5   581
    X22       CONSTR6   796
    X22       CONSTR7   678
    X22       CONSTR8   333
    X22       CONSTR9   409
    X22       CONSTR10  795
    X23       OBJ       576
    X23       CONSTR1   455
    X23       CONSTR2   823
    X23       CONSTR3   36
    X23       CONSTR4   275
    X23       CONSTR5   285
    X23       CONSTR6   519
    X23       CONSTR7   980
    X23       CONSTR8   732
    X23       CONSTR9   258
    X23       CONSTR10  184
    X24       OBJ       701
    X24       CONSTR1   54
    X24       CONSTR2   437
    X24       CONSTR3   925
    X24       CONSTR4   86
    X24       CONSTR5   701
    X24       CONSTR6   936
    X24       CONSTR7   752
    X24       CONSTR8   643
    X24       CONSTR9   360
    X24       CONSTR10  592
    X25       OBJ       553
    X25       CONSTR1   334
    X25       CONSTR2   875
    X25       CONSTR3   285
    X25       CONSTR4   762
    X25       CONSTR5   76
    X25       CONSTR6   183
    X25       CONSTR7   773
    X25       CONSTR8   492
    X25       CONSTR9   189
    X25       CONSTR10  500
    X26       OBJ       900
    X26       CONSTR1   513
    X26       CONSTR2   263
    X26       CONSTR3   135
    X26       CONSTR4   983
    X26       CONSTR5   881
    X26       CONSTR6   689
    X26       CONSTR7   985
    X26       CONSTR8   14
    X26       CONSTR9   639
    X26       CONSTR10  890
    X27       OBJ       811
    X27       CONSTR1   24
    X27       CONSTR2   490
    X27       CONSTR3   520
    X27       CONSTR4   882
    X27       CONSTR5   956
    X27       CONSTR6   61
    X27       CONSTR7   661
    X27       CONSTR8   962
    X27       CONSTR9   487
    X27       CONSTR10  629
    X28       OBJ       821
    X28       CONSTR1   209
    X28       CONSTR2   329
    X28       CONSTR3   396
    X28       CONSTR4   38
    X28       CONSTR5   864
    X28       CONSTR6   913
    X28       CONSTR7   17
    X28       CONSTR8   536
    X28       CONSTR9   441
    X28       CONSTR10  570
    X29       OBJ       791
    X29       CONSTR1   174
    X29       CONSTR2   718
    X29       CONSTR3   222
    X29       CONSTR4   160
    X29       CONSTR5   317
    X29       CONSTR6   420
    X29       CONSTR7   106
    X29       CONSTR8   934
    X29       CONSTR9   795
    X29       CONSTR10  443
    X30       OBJ       752
    X30       CONSTR1   348
    X30       CONSTR2   775
    X30       CONSTR3   154
    X30       CONSTR4   772
    X30       CONSTR5   970
    X30       CONSTR6   858
    X30       CONSTR7   319
    X30       CONSTR8   367
    X30       CONSTR9   53
    X30       CONSTR10  902
    X31       OBJ       692
    X31       CONSTR1   866
    X31       CONSTR2   108
    X31       CONSTR3   425
    X31       CONSTR4   613
    X31       CONSTR5   478
    X31       CONSTR6   15
    X31       CONSTR7   368
    X31       CONSTR8   358
    X31       CONSTR9   323
    X31       CONSTR10  837
    X32       OBJ       495
    X32       CONSTR1   857
    X32       CONSTR2   109
    X32       CONSTR3   183
    X32       CONSTR4   919
    X32       CONSTR5   123
    X32       CONSTR6   157
    X32       CONSTR7   494
    X32       CONSTR8   15
    X32       CONSTR9   458
    X32       CONSTR10  492
    X33       OBJ       613
    X33       CONSTR1   62
    X33       CONSTR2   764
    X33       CONSTR3   577
    X33       CONSTR4   18
    X33       CONSTR5   814
    X33       CONSTR6   606
    X33       CONSTR7   361
    X33       CONSTR8   45
    X33       CONSTR9   405
    X33       CONSTR10  839
    X34       OBJ       929
    X34       CONSTR1   367
    X34       CONSTR2   28
    X34       CONSTR3   839
    X34       CONSTR4   81
    X34       CONSTR5   1000
    X34       CONSTR6   852
    X34       CONSTR7   209
    X34       CONSTR8   761
    X34       CONSTR9   239
    X34       CONSTR10  786
    X35       OBJ       971
    X35       CONSTR1   621
    X35       CONSTR2   489
    X35       CONSTR3   707
    X35       CONSTR4   645
    X35       CONSTR5   988
    X35       CONSTR6   539
    X35       CONSTR7   382
    X35       CONSTR8   724
    X35       CONSTR9   235
    X35       CONSTR10  602
    X36       OBJ       1082
    X36       CONSTR1   641
    X36       CONSTR2   858
    X36       CONSTR3   808
    X36       CONSTR4   979
    X36       CONSTR5   399
    X36       CONSTR6   682
    X36       CONSTR7   785
    X36       CONSTR8   726
    X36       CONSTR9   347
    X36       CONSTR10  365
    X37       OBJ       809
    X37       CONSTR1   268
    X37       CONSTR2   543
    X37       CONSTR3   711
    X37       CONSTR4   154
    X37       CONSTR5   768
    X37       CONSTR6   460
    X37       CONSTR7   795
    X37       CONSTR8   318
    X37       CONSTR9   241
    X37       CONSTR10  872
    X38       OBJ       972
    X38       CONSTR1   710
    X38       CONSTR2   1000
    X38       CONSTR3   982
    X38       CONSTR4   938
    X38       CONSTR5   5
    X38       CONSTR6   719
    X38       CONSTR7   184
    X38       CONSTR8   392
    X38       CONSTR9   432
    X38       CONSTR10  558
    X39       OBJ       1015
    X39       CONSTR1   530
    X39       CONSTR2   788
    X39       CONSTR3   324
    X39       CONSTR4   643
    X39       CONSTR5   883
    X39       CONSTR6   870
    X39       CONSTR7   465
    X39       CONSTR8   647
    X39       CONSTR9   566
    X39       CONSTR10  107
    X40       OBJ       870
    X40       CONSTR1   295
    X40       CONSTR2   592
    X40       CONSTR3   291
    X40       CONSTR4   672
    X40       CONSTR5   291
    X40       CONSTR6   119
    X40       CONSTR7   526
    X40       CONSTR8   269
    X40       CONSTR9   968
    X40       CONSTR10  466
    X41       OBJ       784
    X41       CONSTR1   961
    X41       CONSTR2   124
    X41       CONSTR3   329
    X41       CONSTR4   208
    X41       CONSTR5   375
    X41       CONSTR6   821
    X41       CONSTR7   462
    X41       CONSTR8   420
    X41       CONSTR9   611
    X41       CONSTR10  890
    X42       OBJ       424
    X42       CONSTR1   192
    X42       CONSTR2   337
    X42       CONSTR3   58
    X42       CONSTR4   106
    X42       CONSTR5   463
    X42       CONSTR6   192
    X42       CONSTR7   995
    X42       CONSTR8   557
    X42       CONSTR9   404
    X42       CONSTR10  645
    X43       OBJ       886
    X43       CONSTR1   834
    X43       CONSTR2   922
    X43       CONSTR3   932
    X43       CONSTR4   456
    X43       CONSTR5   862
    X43       CONSTR6   57
    X43       CONSTR7   9
    X43       CONSTR8   460
    X43       CONSTR9   916
    X43       CONSTR10  198
    X44       OBJ       785
    X44       CONSTR1   697
    X44       CONSTR2   75
    X44       CONSTR3   263
    X44       CONSTR4   489
    X44       CONSTR5   746
    X44       CONSTR6   753
    X44       CONSTR7   233
    X44       CONSTR8   821
    X44       CONSTR9   413
    X44       CONSTR10  686
    X45       OBJ       714
    X45       CONSTR1   57
    X45       CONSTR2   915
    X45       CONSTR3   613
    X45       CONSTR4   244
    X45       CONSTR5   274
    X45       CONSTR6   804
    X45       CONSTR7   497
    X45       CONSTR8   259
    X45       CONSTR9   654
    X45       CONSTR10  58
    X46       OBJ       761
    X46       CONSTR1   441
    X46       CONSTR2   222
    X46       CONSTR3   418
    X46       CONSTR4   795
    X46       CONSTR5   754
    X46       CONSTR6   159
    X46       CONSTR7   946
    X46       CONSTR8   938
    X46       CONSTR9   703
    X46       CONSTR10  183
    X47       OBJ       881
    X47       CONSTR1   496
    X47       CONSTR2   911
    X47       CONSTR3   730
    X47       CONSTR4   430
    X47       CONSTR5   428
    X47       CONSTR6   986
    X47       CONSTR7   475
    X47       CONSTR8   672
    X47       CONSTR9   564
    X47       CONSTR10  866
    X48       OBJ       736
    X48       CONSTR1   858
    X48       CONSTR2   285
    X48       CONSTR3   957
    X48       CONSTR4   682
    X48       CONSTR5   975
    X48       CONSTR6   504
    X48       CONSTR7   27
    X48       CONSTR8   352
    X48       CONSTR9   593
    X48       CONSTR10  561
    X49       OBJ       875
    X49       CONSTR1   944
    X49       CONSTR2   976
    X49       CONSTR3   889
    X49       CONSTR4   844
    X49       CONSTR5   1
    X49       CONSTR6   432
    X49       CONSTR7   415
    X49       CONSTR8   130
    X49       CONSTR9   509
    X49       CONSTR10  322
    X50       OBJ       571
    X50       CONSTR1   384
    X50       CONSTR2   839
    X50       CONSTR3   617
    X50       CONSTR4   775
    X50       CONSTR5   83
    X50       CONSTR6   320
    X50       CONSTR7   462
    X50       CONSTR8   167
    X50       CONSTR9   932
    X50       CONSTR10  254
    X51       OBJ       612
    X51       CONSTR1   829
    X51       CONSTR2   754
    X51       CONSTR3   678
    X51       CONSTR4   850
    X51       CONSTR5   41
    X51       CONSTR6   683
    X51       CONSTR7   241
    X51       CONSTR8   714
    X51       CONSTR9   704
    X51       CONSTR10  437
    X52       OBJ       521
    X52       CONSTR1   513
    X52       CONSTR2   46
    X52       CONSTR3   606
    X52       CONSTR4   577
    X52       CONSTR5   473
    X52       CONSTR6   203
    X52       CONSTR7   196
    X52       CONSTR8   532
    X52       CONSTR9   565
    X52       CONSTR10  890
    X53       OBJ       912
    X53       CONSTR1   665
    X53       CONSTR2   55
    X53       CONSTR3   56
    X53       CONSTR4   701
    X53       CONSTR5   257
    X53       CONSTR6   601
    X53       CONSTR7   894
    X53       CONSTR8   660
    X53       CONSTR9   1000
    X53       CONSTR10  596
    X54       OBJ       925
    X54       CONSTR1   432
    X54       CONSTR2   386
    X54       CONSTR3   93
    X54       CONSTR4   985
    X54       CONSTR5   101
    X54       CONSTR6   297
    X54       CONSTR7   549
    X54       CONSTR8   279
    X54       CONSTR9   653
    X54       CONSTR10  560
    X55       OBJ       582
    X55       CONSTR1   990
    X55       CONSTR2   439
    X55       CONSTR3   11
    X55       CONSTR4   902
    X55       CONSTR5   501
    X55       CONSTR6   285
    X55       CONSTR7   903
    X55       CONSTR8   208
    X55       CONSTR9   785
    X55       CONSTR10  419
    X56       OBJ       945
    X56       CONSTR1   621
    X56       CONSTR2   790
    X56       CONSTR3   310
    X56       CONSTR4   660
    X56       CONSTR5   940
    X56       CONSTR6   288
    X56       CONSTR7   207
    X56       CONSTR8   183
    X56       CONSTR9   611
    X56       CONSTR10  212
    X57       OBJ       526
    X57       CONSTR1   709
    X57       CONSTR2   513
    X57       CONSTR3   168
    X57       CONSTR4   75
    X57       CONSTR5   23
    X57       CONSTR6   898
    X57       CONSTR7   700
    X57       CONSTR8   653
    X57       CONSTR9   352
    X57       CONSTR10  25
    X58       OBJ       876
    X58       CONSTR1   342
    X58       CONSTR2   717
    X58       CONSTR3   631
    X58       CONSTR4   578
    X58       CONSTR5   780
    X58       CONSTR6   529
    X58       CONSTR7   238
    X58       CONSTR8   17
    X58       CONSTR9   822
    X58       CONSTR10  777
    X59       OBJ       856
    X59       CONSTR1   40
    X59       CONSTR2   943
    X59       CONSTR3   257
    X59       CONSTR4   527
    X59       CONSTR5   430
    X59       CONSTR6   571
    X59       CONSTR7   282
    X59       CONSTR8   859
    X59       CONSTR9   330
    X59       CONSTR10  505
    X60       OBJ       646
    X60       CONSTR1   330
    X60       CONSTR2   510
    X60       CONSTR3   642
    X60       CONSTR4   502
    X60       CONSTR5   724
    X60       CONSTR6   457
    X60       CONSTR7   448
    X60       CONSTR8   82
    X60       CONSTR9   559
    X60       CONSTR10  834
    X61       OBJ       875
    X61       CONSTR1   885
    X61       CONSTR2   193
    X61       CONSTR3   63
    X61       CONSTR4   881
    X61       CONSTR5   629
    X61       CONSTR6   280
    X61       CONSTR7   655
    X61       CONSTR8   732
    X61       CONSTR9   713
    X61       CONSTR10  167
    X62       OBJ       787
    X62       CONSTR1   751
    X62       CONSTR2   343
    X62       CONSTR3   207
    X62       CONSTR4   565
    X62       CONSTR5   954
    X62       CONSTR6   611
    X62       CONSTR7   857
    X62       CONSTR8   664
    X62       CONSTR9   560
    X62       CONSTR10  198
    X63       OBJ       786
    X63       CONSTR1   95
    X63       CONSTR2   826
    X63       CONSTR3   475
    X63       CONSTR4   100
    X63       CONSTR5   503
    X63       CONSTR6   327
    X63       CONSTR7   89
    X63       CONSTR8   705
    X63       CONSTR9   486
    X63       CONSTR10  308
    X64       OBJ       839
    X64       CONSTR1   650
    X64       CONSTR2   890
    X64       CONSTR3   202
    X64       CONSTR4   801
    X64       CONSTR5   402
    X64       CONSTR6   447
    X64       CONSTR7   574
    X64       CONSTR8   93
    X64       CONSTR9   582
    X64       CONSTR10  978
    X65       OBJ       994
    X65       CONSTR1   953
    X65       CONSTR2   469
    X65       CONSTR3   528
    X65       CONSTR4   416
    X65       CONSTR5   734
    X65       CONSTR6   686
    X65       CONSTR7   169
    X65       CONSTR8   805
    X65       CONSTR9   10
    X65       CONSTR10  380
    X66       OBJ       575
    X66       CONSTR1   687
    X66       CONSTR2   380
    X66       CONSTR3   861
    X66       CONSTR4   74
    X66       CONSTR5   748
    X66       CONSTR6   389
    X66       CONSTR7   156
    X66       CONSTR8   297
    X66       CONSTR9   414
    X66       CONSTR10  161
    X67       OBJ       588
    X67       CONSTR1   361
    X67       CONSTR2   936
    X67       CONSTR3   445
    X67       CONSTR4   129
    X67       CONSTR5   238
    X67       CONSTR6   325
    X67       CONSTR7   529
    X67       CONSTR8   750
    X67       CONSTR9   728
    X67       CONSTR10  317
    X68       OBJ       610
    X68       CONSTR1   933
    X68       CONSTR2   23
    X68       CONSTR3   335
    X68       CONSTR4   907
    X68       CONSTR5   165
    X68       CONSTR6   568
    X68       CONSTR7   473
    X68       CONSTR8   918
    X68       CONSTR9   793
    X68       CONSTR10  570
    X69       OBJ       499
    X69       CONSTR1   612
    X69       CONSTR2   772
    X69       CONSTR3   354
    X69       CONSTR4   855
    X69       CONSTR5   35
    X69       CONSTR6   710
    X69       CONSTR7   52
    X69       CONSTR8   59
    X69       CONSTR9   597
    X69       CONSTR10  813
    X70       OBJ       474
    X70       CONSTR1   889
    X70       CONSTR2   124
    X70       CONSTR3   71
    X70       CONSTR4   555
    X70       CONSTR5   228
    X70       CONSTR6   387
    X70       CONSTR7   613
    X70       CONSTR8   368
    X70       CONSTR9   977
    X70       CONSTR10  56
    X71       OBJ       1017
    X71       CONSTR1   150
    X71       CONSTR2   650
    X71       CONSTR3   299
    X71       CONSTR4   942
    X71       CONSTR5   758
    X71       CONSTR6   977
    X71       CONSTR7   482
    X71       CONSTR8   482
    X71       CONSTR9   894
    X71       CONSTR10  953
    X72       OBJ       652
    X72       CONSTR1   694
    X72       CONSTR2   37
    X72       CONSTR3   739
    X72       CONSTR4   873
    X72       CONSTR5   751
    X72       CONSTR6   408
    X72       CONSTR7   490
    X72       CONSTR8   273
    X72       CONSTR9   432
    X72       CONSTR10  270
    X73       OBJ       927
    X73       CONSTR1   109
    X73       CONSTR2   452
    X73       CONSTR3   891
    X73       CONSTR4   526
    X73       CONSTR5   396
    X73       CONSTR6   976
    X73       CONSTR7   419
    X73       CONSTR8   32
    X73       CONSTR9   391
    X73       CONSTR10  605
    X74       OBJ       782
    X74       CONSTR1   130
    X74       CONSTR2   299
    X74       CONSTR3   414
    X74       CONSTR4   392
    X74       CONSTR5   533
    X74       CONSTR6   530
    X74       CONSTR7   226
    X74       CONSTR8   41
    X74       CONSTR9   804
    X74       CONSTR10  956
    X75       OBJ       955
    X75       CONSTR1   860
    X75       CONSTR2   668
    X75       CONSTR3   98
    X75       CONSTR4   532
    X75       CONSTR5   329
    X75       CONSTR6   512
    X75       CONSTR7   675
    X75       CONSTR8   993
    X75       CONSTR9   525
    X75       CONSTR10  73
    X76       OBJ       519
    X76       CONSTR1   211
    X76       CONSTR2   715
    X76       CONSTR3   275
    X76       CONSTR4   324
    X76       CONSTR5   277
    X76       CONSTR6   689
    X76       CONSTR7   509
    X76       CONSTR8   719
    X76       CONSTR9   494
    X76       CONSTR10  92
    X77       OBJ       840
    X77       CONSTR1   950
    X77       CONSTR2   9
    X77       CONSTR3   591
    X77       CONSTR4   955
    X77       CONSTR5   934
    X77       CONSTR6   954
    X77       CONSTR7   317
    X77       CONSTR8   949
    X77       CONSTR9   702
    X77       CONSTR10  886
    X78       OBJ       636
    X78       CONSTR1   972
    X78       CONSTR2   566
    X78       CONSTR3   831
    X78       CONSTR4   250
    X78       CONSTR5   473
    X78       CONSTR6   477
    X78       CONSTR7   826
    X78       CONSTR8   423
    X78       CONSTR9   175
    X78       CONSTR10  642
    X79       OBJ       930
    X79       CONSTR1   612
    X79       CONSTR2   159
    X79       CONSTR3   831
    X79       CONSTR4   289
    X79       CONSTR5   250
    X79       CONSTR6   905
    X79       CONSTR7   589
    X79       CONSTR8   901
    X79       CONSTR9   523
    X79       CONSTR10  183
    X80       OBJ       892
    X80       CONSTR1   858
    X80       CONSTR2   132
    X80       CONSTR3   926
    X80       CONSTR4   509
    X80       CONSTR5   115
    X80       CONSTR6   178
    X80       CONSTR7   103
    X80       CONSTR8   486
    X80       CONSTR9   664
    X80       CONSTR10  286
    X81       OBJ       784
    X81       CONSTR1   834
    X81       CONSTR2   429
    X81       CONSTR3   35
    X81       CONSTR4   361
    X81       CONSTR5   680
    X81       CONSTR6   619
    X81       CONSTR7   680
    X81       CONSTR8   824
    X81       CONSTR9   854
    X81       CONSTR10  384
    X82       OBJ       717
    X82       CONSTR1   499
    X82       CONSTR2   130
    X82       CONSTR3   514
    X82       CONSTR4   337
    X82       CONSTR5   858
    X82       CONSTR6   273
    X82       CONSTR7   289
    X82       CONSTR8   735
    X82       CONSTR9   20
    X82       CONSTR10  364
    X83       OBJ       410
    X83       CONSTR1   542
    X83       CONSTR2   559
    X83       CONSTR3   361
    X83       CONSTR4   55
    X83       CONSTR5   270
    X83       CONSTR6   2
    X83       CONSTR7   346
    X83       CONSTR8   100
    X83       CONSTR9   495
    X83       CONSTR10  83
    X84       OBJ       913
    X84       CONSTR1   795
    X84       CONSTR2   709
    X84       CONSTR3   362
    X84       CONSTR4   881
    X84       CONSTR5   787
    X84       CONSTR6   161
    X84       CONSTR7   39
    X84       CONSTR8   827
    X84       CONSTR9   805
    X84       CONSTR10  229
    X85       OBJ       739
    X85       CONSTR1   386
    X85       CONSTR2   507
    X85       CONSTR3   991
    X85       CONSTR4   532
    X85       CONSTR5   483
    X85       CONSTR6   232
    X85       CONSTR7   289
    X85       CONSTR8   448
    X85       CONSTR9   802
    X85       CONSTR10  508
    X86       OBJ       994
    X86       CONSTR1   578
    X86       CONSTR2   853
    X86       CONSTR3   348
    X86       CONSTR4   423
    X86       CONSTR5   961
    X86       CONSTR6   562
    X86       CONSTR7   374
    X86       CONSTR8   18
    X86       CONSTR9   730
    X86       CONSTR10  621
    X87       OBJ       541
    X87       CONSTR1   197
    X87       CONSTR2   545
    X87       CONSTR3   632
    X87       CONSTR4   665
    X87       CONSTR5   505
    X87       CONSTR6   690
    X87       CONSTR7   148
    X87       CONSTR8   905
    X87       CONSTR9   88
    X87       CONSTR10  64
    X88       OBJ       679
    X88       CONSTR1   266
    X88       CONSTR2   523
    X88       CONSTR3   771
    X88       CONSTR4   501
    X88       CONSTR5   748
    X88       CONSTR6   608
    X88       CONSTR7   478
    X88       CONSTR8   930
    X88       CONSTR9   629
    X88       CONSTR10  229
    X89       OBJ       721
    X89       CONSTR1   932
    X89       CONSTR2   169
    X89       CONSTR3   439
    X89       CONSTR4   453
    X89       CONSTR5   636
    X89       CONSTR6   490
    X89       CONSTR7   222
    X89       CONSTR8   650
    X89       CONSTR9   290
    X89       CONSTR10  96
    X90       OBJ       945
    X90       CONSTR1   811
    X90       CONSTR2   969
    X90       CONSTR3   13
    X90       CONSTR4   633
    X90       CONSTR5   882
    X90       CONSTR6   690
    X90       CONSTR7   725
    X90       CONSTR8   509
    X90       CONSTR9   317
    X90       CONSTR10  190
    X91       OBJ       923
    X91       CONSTR1   106
    X91       CONSTR2   563
    X91       CONSTR3   482
    X91       CONSTR4   944
    X91       CONSTR5   495
    X91       CONSTR6   123
    X91       CONSTR7   717
    X91       CONSTR8   331
    X91       CONSTR9   928
    X91       CONSTR10  979
    X92       OBJ       798
    X92       CONSTR1   969
    X92       CONSTR2   615
    X92       CONSTR3   10
    X92       CONSTR4   161
    X92       CONSTR5   706
    X92       CONSTR6   256
    X92       CONSTR7   574
    X92       CONSTR8   458
    X92       CONSTR9   937
    X92       CONSTR10  661
    X93       OBJ       710
    X93       CONSTR1   7
    X93       CONSTR2   16
    X93       CONSTR3   448
    X93       CONSTR4   453
    X93       CONSTR5   427
    X93       CONSTR6   950
    X93       CONSTR7   47
    X93       CONSTR8   129
    X93       CONSTR9   465
    X93       CONSTR10  24
    X94       OBJ       846
    X94       CONSTR1   64
    X94       CONSTR2   484
    X94       CONSTR3   969
    X94       CONSTR4   977
    X94       CONSTR5   221
    X94       CONSTR6   781
    X94       CONSTR7   899
    X94       CONSTR8   32
    X94       CONSTR9   10
    X94       CONSTR10  411
    X95       OBJ       664
    X95       CONSTR1   82
    X95       CONSTR2   73
    X95       CONSTR3   585
    X95       CONSTR4   48
    X95       CONSTR5   361
    X95       CONSTR6   267
    X95       CONSTR7   490
    X95       CONSTR8   71
    X95       CONSTR9   471
    X95       CONSTR10  940
    X96       OBJ       842
    X96       CONSTR1   152
    X96       CONSTR2   434
    X96       CONSTR3   439
    X96       CONSTR4   204
    X96       CONSTR5   546
    X96       CONSTR6   704
    X96       CONSTR7   716
    X96       CONSTR8   385
    X96       CONSTR9   702
    X96       CONSTR10  515
    X97       OBJ       954
    X97       CONSTR1   801
    X97       CONSTR2   693
    X97       CONSTR3   395
    X97       CONSTR4   867
    X97       CONSTR5   560
    X97       CONSTR6   650
    X97       CONSTR7   976
    X97       CONSTR8   183
    X97       CONSTR9   796
    X97       CONSTR10  89
    X98       OBJ       492
    X98       CONSTR1   12
    X98       CONSTR2   281
    X98       CONSTR3   127
    X98       CONSTR4   205
    X98       CONSTR5   842
    X98       CONSTR6   574
    X98       CONSTR7   142
    X98       CONSTR8   16
    X98       CONSTR9   627
    X98       CONSTR10  77
    X99       OBJ       813
    X99       CONSTR1   590
    X99       CONSTR2   35
    X99       CONSTR3   206
    X99       CONSTR4   847
    X99       CONSTR5   84
    X99       CONSTR6   735
    X99       CONSTR7   878
    X99       CONSTR8   430
    X99       CONSTR9   894
    X99       CONSTR10  348
    X100      OBJ       346
    X100      CONSTR1   948
    X100      CONSTR2   598
    X100      CONSTR3   103
    X100      CONSTR4   171
    X100      CONSTR5   185
    X100      CONSTR6   148
    X100      CONSTR7   341
    X100      CONSTR8   170
    X100      CONSTR9   209
    X100      CONSTR10  538
    INT0001   'MARKER'  'INTEND'
RHS
    RHS10001  CONSTR1   12605
    RHS10001  CONSTR2   11900
    RHS10001  CONSTR3   12085
    RHS10001  CONSTR4   13701
    RHS10001  CONSTR5   12890
    RHS10001  CONSTR6   13113
    RHS10001  CONSTR7   12066
    RHS10001  CONSTR8   11586
    RHS10001  CONSTR9   13495
    RHS10001  CONSTR10  12039
BOUNDS
 BV BND       X1        .00
 BV BND       X2        .00
 BV BND       X3        .00
 BV BND       X4        .00
 BV BND       X5        .00
 BV BND       X6        .00
 BV BND       X7        .00
 BV BND       X8        .00
 BV BND       X9        .00
 BV BND       X10       .00
 BV BND       X11       .00
 BV BND       X12       .00
 BV BND       X13       .00
 BV BND       X14       .00
 BV BND       X15       .00
 BV BND       X16       .00
 BV BND       X17       .00
 BV BND       X18       .00
 BV BND       X19       .00
 BV BND       X20       .00
 BV BND       X21       .00
 BV BND       X22       .00
 BV BND       X23       .00
 BV BND       X24       .00
 BV BND       X25       .00
 BV BND       X26       .00
 BV BND       X27       .00
 BV BND       X28       .00
 BV BND       X29       .00
 BV BND       X30       .00
 BV BND       X31       .00
 BV BND       X32       .00
 BV BND       X33       .00
 BV BND       X34       .00
 BV BND       X35       .00
 BV BND       X36       .00
 BV BND       X37       .00
 BV BND       X38       .00
 BV BND       X39       .00
 BV BND       X40       .00
 BV BND       X41       .00
 BV BND       X42       .00
 BV BND       X43       .00
 BV BND       X44       .00
 BV BND       X45       .00
 BV BND       X46       .00
 BV BND       X47       .00
 BV BND       X48       .00
 BV BND       X49       .00
 BV BND       X50       .00
 BV BND       X51       .00
 BV BND       X52       .00
 BV BND       X53       .00
 BV BND       X54       .00
 BV BND       X55       .00
 BV BND       X56       .00
 BV BND       X57       .00
 BV BND       X58       .00
 BV BND       X59       .00
 BV BND       X60       .00
 BV BND       X61       .00
 BV BND       X62       .00
 BV BND       X63       .00
 BV BND       X64       .00
 BV BND       X65       .00
 BV BND       X66       .00
 BV BND       X67       .00
 BV BND       X68       .00
 BV BND       X69       .00
 BV BND       X70       .00
 BV BND       X71       .00
 BV BND       X72       .00
 BV BND       X73       .00
 BV BND       X74       .00
 BV BND       X75       .00
 BV BND       X76       .00
 BV BND       X77       .00
 BV BND       X78       .00
 BV BND       X79       .00
 BV BND       X80       .00
 BV BND       X81       .00
 BV BND       X82       .00
 BV BND       X83       .00
 BV BND       X84       .00
 BV BND       X85       .00
 BV BND       X86       .00
 BV BND       X87       .00
 BV BND       X88       .00
 BV BND       X89       .00
 BV BND       X90       .00
 BV BND       X91       .00
 BV BND       X92       .00
 BV BND       X93       .00
 BV BND       X94       .00
 BV BND       X95       .00
 BV BND       X96       .00
 BV BND       X97       .00
 BV BND       X98       .00
 BV BND       X99       .00
 BV BND       X100      .00
ENDATA
